
Log started (V11.0.0) Thu May 15 00:51:16 2008

Tried aggregator 1 time.
Reduced MIP has 150 rows, 5001 columns, and 10050 nonzeros.
Presolve time =    0.05 sec.
Clique table members: 100.
MIP emphasis: balance optimality and feasibility.
MIP search method: dynamic search.
Parallel mode: none, using 1 thread.
Root relaxation solution time =    0.20 sec.

        Nodes                                         Cuts/
   Node  Left     Objective  IInf  Best Integer     Best Node    ItCnt     Gap

*     0+    0                        11117.0000      200.2589      519   98.20%
*     0+    0                          203.0000      200.2589      519    1.35%
      0     0      201.0000    56      203.0000      Fract: 3      536    0.99%
*     0+    0                          202.0000      201.0000      536    0.50%
      0     2      201.0000    56      202.0000      201.0000      536    0.50%
    100    24    infeasible            202.0000      201.0000    31758    0.50%
    200    26    infeasible            202.0000      201.0000    73287    0.50%
    300    26    infeasible            202.0000      201.0000   108702    0.50%
    400    30    infeasible            202.0000      201.0000   145396    0.50%
    500    30    infeasible            202.0000      201.0000   185240    0.50%

Solution pool: 3 solutions saved.

MIP - Integer optimal solution:  Objective = 2.0200000000e+002
Solution time =   26.91 sec.  Iterations = 191972  Nodes = 531


Incumbent solution
Variable Name           Solution Value
Cmax                        202.000000
X_1_9                         1.000000
X_2_26                        1.000000
X_3_25                        1.000000
X_4_5                         1.000000
X_5_20                        1.000000
X_6_41                        1.000000
X_7_40                        1.000000
X_8_7                         1.000000
X_9_42                        1.000000
X_10_36                       1.000000
X_11_29                       1.000000
X_12_21                       1.000000
X_13_48                       1.000000
X_14_36                       1.000000
X_15_13                       1.000000
X_16_28                       1.000000
X_17_31                       1.000000
X_18_24                       1.000000
X_19_22                       1.000000
X_20_19                       1.000000
X_21_8                        1.000000
X_22_50                       1.000000
X_23_43                       1.000000
X_24_25                       1.000000
X_25_49                       1.000000
X_26_15                       1.000000
X_27_49                       1.000000
X_28_38                       1.000000
X_29_11                       1.000000
X_30_35                       1.000000
X_31_37                       1.000000
X_32_1                        1.000000
X_33_34                       1.000000
X_34_34                       1.000000
X_35_19                       1.000000
X_36_40                       1.000000
X_37_44                       1.000000
X_38_35                       1.000000
X_39_30                       1.000000
X_40_42                       1.000000
X_41_2                        1.000000
X_42_1                        1.000000
X_43_8                        1.000000
X_44_37                       1.000000
X_45_32                       1.000000
X_46_33                       1.000000
X_47_16                       1.000000
X_48_15                       1.000000
X_49_16                       1.000000
X_50_43                       1.000000
X_51_14                       1.000000
X_52_3                        1.000000
X_53_18                       1.000000
X_54_22                       1.000000
X_55_5                        1.000000
X_56_23                       1.000000
X_57_47                       1.000000
X_58_4                        1.000000
X_59_13                       1.000000
X_60_12                       1.000000
X_61_32                       1.000000
X_62_41                       1.000000
X_63_30                       1.000000
X_64_10                       1.000000
X_65_21                       1.000000
X_66_20                       1.000000
X_67_7                        1.000000
X_68_27                       1.000000
X_69_14                       1.000000
X_70_46                       1.000000
X_71_6                        1.000000
X_72_48                       1.000000
X_73_23                       1.000000
X_74_46                       1.000000
X_75_47                       1.000000
X_76_26                       1.000000
X_77_33                       1.000000
X_78_45                       1.000000
X_79_9                        1.000000
X_80_24                       1.000000
X_81_17                       1.000000
X_82_45                       1.000000
X_83_4                        1.000000
X_84_17                       1.000000
X_85_18                       1.000000
X_86_12                       1.000000
X_87_2                        1.000000
X_88_3                        1.000000
X_89_39                       1.000000
X_90_29                       1.000000
X_91_31                       1.000000
X_92_38                       1.000000
X_93_27                       1.000000
X_94_39                       1.000000
X_95_28                       1.000000
X_96_6                        1.000000
X_97_11                       1.000000
X_98_44                       1.000000
X_99_50                       1.000000
X_100_10                      1.000000
All other variables in the range 1-5001 are 0.
